num_occupants = 8;
num_patients = 37;
horizon = 14;
num_rooms = 5;
oc_length_of_stay = [6, 9, 1, 3, 2, 1, 3, 2];
oc_gender = [1, 1, 2, 1, 1, 1, 1, 1];
oc_room = [2, 2, 1, 5, 3, 4, 5, 5];
length_of_stay = [8, 2, 6, 3, 4, 3, 2, 3, 3, 3, 7, 3, 3, 3, 7, 3, 6, 6, 2, 4, 2, 2, 5, 9, 3, 6, 4, 10, 3, 4, 2, 3, 7, 5, 4, 4, 5];
gender = [1, 2, 1, 2, 2, 1, 2, 2, 2, 1, 1, 1, 1, 2, 1, 1, 1, 2, 2, 2, 1, 2, 1, 2, 2, 2, 1, 1, 1, 2, 2, 1, 2, 2, 1, 1, 1];
max_incompatible = 2;
incompatible_rooms = [|0, 0 | 0, 0 | 5, 0 | 0, 0 | 0, 0 | 5, 0 | 4, 0 | 2, 0 | 0, 0 | 2, 5 | 4, 5 | 5, 0 | 0, 0 | 3, 0 | 0, 0 | 0, 0 | 0, 0 | 0, 0 | 5, 0 | 1, 2 | 3, 0 | 0, 0 | 0, 0 | 0, 0 | 0, 0 | 0, 0 | 1, 0 | 1, 4 | 2, 0 | 4, 0 | 4, 0 | 0, 0 | 0, 0 | 0, 0 | 0, 0 | 0, 0 | 1, 2|];
mandatory = [false, false, false, false, false, true, false, true, false, true, true, true, true, true, true, false, false, false, false, false, true, true, false, false, false, false, false, true, false, false, false, false, false, false, true, false, false];
surgery_duration = [120, 90, 90, 90, 120, 60, 120, 60, 60, 120, 60, 90, 120, 90, 60, 60, 90, 60, 60, 90, 90, 60, 60, 60, 180, 60, 90, 120, 60, 60, 90, 60, 60, 120, 180, 120, 90];
surgeon = [1, 1, 1, 1, 1, 1, 1, 1, 1, 1, 1, 1, 1, 1, 1, 1, 1, 1, 1, 1, 1, 1, 1, 1, 1, 1, 1, 1, 1, 1, 1, 1, 1, 1, 1, 1, 1];
num_surgeons = 1;
max_surgery = array2d(1..1, 0..13, [|0, 480, 360, 480, 480, 0, 0, 360, 0, 0, 480, 600, 0, 480|]);
release_day = [3, 1, 1, 3, 11, 2, 1, 1, 2, 2, 1, 7, 1, 3, 2, 1, 3, 7, 2, 1, 3, 2, 1, 2, 1, 1, 10, 1, 7, 1, 2, 2, 2, 1, 4, 3, 1];
due_day = [14, 14, 14, 14, 14, 13, 14, 4, 14, 3, 3, 13, 10, 11, 13, 14, 14, 14, 14, 14, 13, 13, 14, 14, 14, 14, 14, 13, 14, 14, 14, 14, 14, 14, 13, 14, 14];
capacity = [3, 2, 4, 3, 4];
num_ot = 2;
max_ot = array2d(1..2, 0..13, [|480, 720, 720, 720, 600, 600, 720, 720, 720, 720, 720, 600, 600, 720 | 480, 600, 600, 600, 720, 600, 0, 600, 600, 720, 600, 480, 600, 0|]);
weight_selection = 150;
weight_delay = 5;
